
Gurobi 9.0.3 (win64) logging started Mon Jan  3 05:27:14 2022

Changed value of parameter LogFile to Results/sslp3_20_100_200_var_BendersBnC.log
   Prev:   Default: 
Changed value of parameter Heuristics to 0.0
   Prev: 0.05  Min: 0.0  Max: 1.0  Default: 0.05
Changed value of parameter lazyConstraints to 1
   Prev: 0  Min: 0  Max: 1  Default: 0
Changed value of parameter timeLimit to 7177.470263004303
   Prev: inf  Min: 0.0  Max: inf  Default: inf
Gurobi Optimizer version 9.0.3 build v9.0.3rc0 (win64)
Optimize a model with 2933 rows, 240 columns and 83385 nonzeros
Model fingerprint: 0x463f6d83
Variable types: 220 continuous, 20 integer (20 binary)
Coefficient statistics:
  Matrix range     [2e-13, 9e+05]
  Objective range  [5e-03, 4e+01]
  Bounds range     [1e+00, 1e+00]
  RHS range        [7e-15, 5e+04]
Warning: Model contains large matrix coefficient range
         Consider reformulating model or setting NumericFocus parameter
         to avoid numerical issues.
Presolve added 0 rows and 5 columns
Presolve removed 834 rows and 0 columns
Presolve time: 0.11s
Presolved: 2099 rows, 245 columns, 36250 nonzeros
Variable types: 224 continuous, 21 integer (20 binary)

Root relaxation: objective -1.162944e+03, 550 iterations, 0.13 seconds

    Nodes    |    Current Node    |     Objective Bounds      |     Work
 Expl Unexpl |  Obj  Depth IntInf | Incumbent    BestBd   Gap | It/Node Time

     0     0 -1162.9439    0   21          - -1162.9439      -     -    0s
     0     0 -1159.3740    0   21          - -1159.3740      -     -    0s
     0     0 -1158.5348    0   18          - -1158.5348      -     -    0s
     0     0 -1158.2369    0   18          - -1158.2369      -     -    0s
     0     0 -1158.0447    0   19          - -1158.0447      -     -    0s
     0     0 -1157.8306    0   18          - -1157.8306      -     -    0s
     0     0 -1157.7065    0   19          - -1157.7065      -     -    0s
     0     0 -1157.6102    0   19          - -1157.6102      -     -    0s
     0     0 -1157.5673    0   18          - -1157.5673      -     -    0s
     0     0 -1157.5486    0   19          - -1157.5486      -     -    0s
     0     0 -1157.5176    0   19          - -1157.5176      -     -    0s
     0     0 -1157.4969    0   18          - -1157.4969      -     -    0s
     0     0 -1157.4799    0   19          - -1157.4799      -     -    0s
     0     0 -1157.4662    0   19          - -1157.4662      -     -    0s
     0     0 -1157.4410    0   19          - -1157.4410      -     -    0s
     0     0 -1157.4314    0   19          - -1157.4314      -     -    0s
     0     0 -1157.4281    0   19          - -1157.4281      -     -    0s
     0     0 -1157.4236    0   19          - -1157.4236      -     -    0s
     0     0 -1157.4228    0   18          - -1157.4228      -     -    0s
     0     0 -1157.4181    0   18          - -1157.4181      -     -    0s
     0     0 -1157.4165    0   18          - -1157.4165      -     -    0s
     0     0 -1157.4154    0   18          - -1157.4154      -     -    0s
     0     0 -1156.5865    0   20          - -1156.5865      -     -    1s
     0     0 -1156.0865    0   21          - -1156.0865      -     -    1s
     0     0 -1155.8439    0   19          - -1155.8439      -     -    1s
     0     0 -1155.5577    0   17          - -1155.5577      -     -    1s
     0     0 -1155.4003    0   19          - -1155.4003      -     -    1s
     0     0 -1155.2961    0   20          - -1155.2961      -     -    1s
     0     0 -1155.2143    0   18          - -1155.2143      -     -    1s
     0     0 -1155.1841    0   19          - -1155.1841      -     -    1s
     0     0 -1155.0945    0   18          - -1155.0945      -     -    1s
     0     0 -1155.0108    0   18          - -1155.0108      -     -    1s
     0     0 -1155.0004    0   19          - -1155.0004      -     -    1s
     0     0 -1154.9840    0   18          - -1154.9840      -     -    1s
     0     0 -1154.9765    0   18          - -1154.9765      -     -    1s
     0     0 -1154.9669    0   19          - -1154.9669      -     -    1s
     0     0 -1154.9588    0   18          - -1154.9588      -     -    1s
     0     0 -1154.9505    0   19          - -1154.9505      -     -    1s
     0     0 -1154.9431    0   18          - -1154.9431      -     -    1s
     0     0 -1154.9390    0   19          - -1154.9390      -     -    1s
     0     0 -1154.9324    0   19          - -1154.9324      -     -    1s
     0     0 -1154.9316    0   19          - -1154.9316      -     -    1s
     0     0 -1154.6408    0   19          - -1154.6408      -     -    1s
     0     0 -1154.5400    0   19          - -1154.5400      -     -    1s
     0     0 -1154.4752    0   18          - -1154.4752      -     -    1s
     0     0 -1154.4564    0   18          - -1154.4564      -     -    1s
     0     0 -1154.4401    0   18          - -1154.4401      -     -    1s
     0     0 -1154.4262    0   18          - -1154.4262      -     -    1s
     0     0 -1154.4139    0   19          - -1154.4139      -     -    1s
     0     0 -1154.3715    0   18          - -1154.3715      -     -    1s
     0     0 -1154.3332    0   18          - -1154.3332      -     -    1s
     0     0 -1154.3162    0   20          - -1154.3162      -     -    1s
     0     0 -1154.3044    0   21          - -1154.3044      -     -    1s
     0     0 -1154.2917    0   20          - -1154.2917      -     -    2s
     0     0 -1154.2848    0   18          - -1154.2848      -     -    2s
     0     0 -1154.2805    0   20          - -1154.2805      -     -    2s
     0     0 -1154.2793    0   19          - -1154.2793      -     -    2s
     0     0 -1154.1380    0   17          - -1154.1380      -     -    2s
     0     0 -1154.0902    0   18          - -1154.0902      -     -    2s
     0     0 -1154.0735    0   19          - -1154.0735      -     -    2s
     0     0 -1154.0544    0   18          - -1154.0544      -     -    2s
     0     0 -1154.0449    0   20          - -1154.0449      -     -    2s
     0     0 -1154.0349    0   19          - -1154.0349      -     -    2s
     0     0 -1154.0248    0   18          - -1154.0248      -     -    2s
     0     0 -1154.0148    0   19          - -1154.0148      -     -    2s
     0     0 -1154.0100    0   18          - -1154.0100      -     -    2s
     0     0 -1154.0060    0   18          - -1154.0060      -     -    2s
     0     0 -1154.0046    0   19          - -1154.0046      -     -    2s
     0     0 -1153.9542    0   18          - -1153.9542      -     -    2s
     0     0 -1153.9193    0   19          - -1153.9193      -     -    2s
     0     0 -1153.9038    0   20          - -1153.9038      -     -    2s
     0     0 -1153.8940    0   21          - -1153.8940      -     -    2s
     0     0 -1153.8853    0   21          - -1153.8853      -     -    2s
     0     0 -1153.8790    0   21          - -1153.8790      -     -    2s
     0     0 -1153.8748    0   21          - -1153.8748      -     -    2s
     0     0 -1153.8724    0   20          - -1153.8724      -     -    2s
     0     0 -1153.7629    0   20          - -1153.7629      -     -    2s
     0     0 -1153.7507    0   19          - -1153.7507      -     -    2s
     0     0 -1153.7463    0   20          - -1153.7463      -     -    2s
     0     0 -1153.7421    0   19          - -1153.7421      -     -    2s
     0     0 -1153.7375    0   21          - -1153.7375      -     -    2s
     0     0 -1153.7337    0   19          - -1153.7337      -     -    2s
     0     0 -1153.7320    0   20          - -1153.7320      -     -    3s
     0     0 -1153.6862    0   20          - -1153.6862      -     -    3s
     0     0 -1153.6608    0   18          - -1153.6608      -     -    3s
     0     0 -1153.6574    0   20          - -1153.6574      -     -    3s
     0     0 -1153.6519    0   20          - -1153.6519      -     -    3s
     0     0 -1153.6510    0   20          - -1153.6510      -     -    3s
     0     0 -1153.6169    0   18          - -1153.6169      -     -    3s
     0     0 -1153.6023    0   19          - -1153.6023      -     -    3s
     0     0 -1153.5988    0   19          - -1153.5988      -     -    3s
     0     0 -1153.5909    0   21          - -1153.5909      -     -    3s
     0     0 -1153.5885    0   19          - -1153.5885      -     -    3s
     0     0 -1153.5510    0   19          - -1153.5510      -     -    3s
     0     0 -1153.5366    0   20          - -1153.5366      -     -    3s
     0     0 -1153.5308    0   20          - -1153.5308      -     -    3s
     0     0 -1153.5292    0   20          - -1153.5292      -     -    3s
     0     0 -1153.5195    0   20          - -1153.5195      -     -    3s
     0     0 -1153.5043    0   20          - -1153.5043      -     -    3s
     0     0 -1153.5007    0   20          - -1153.5007      -     -    3s
     0     0 -1153.4961    0   18          - -1153.4961      -     -    3s
     0     0 -1153.4895    0   18          - -1153.4895      -     -    3s
     0     0 -1153.4879    0   18          - -1153.4879      -     -    3s
     0     0 -1153.4594    0   16          - -1153.4594      -     -    3s
     0     0 -1153.4420    0   17          - -1153.4420      -     -    3s
     0     0 -1153.4298    0   19          - -1153.4298      -     -    3s
     0     0 -1153.4202    0   19          - -1153.4202      -     -    3s
     0     0 -1153.4179    0   19          - -1153.4179      -     -    4s
     0     0 -1153.3778    0   18          - -1153.3778      -     -    4s
     0     0 -1153.3672    0   18          - -1153.3672      -     -    4s
     0     0 -1153.3566    0   17          - -1153.3566      -     -    4s
     0     0 -1153.3516    0   18          - -1153.3516      -     -    4s
     0     0 -1153.3493    0   15          - -1153.3493      -     -    4s
     0     0 -1153.3024    0   16          - -1153.3024      -     -    4s
     0     0 -1153.2814    0   18          - -1153.2814      -     -    4s
     0     0 -1153.2693    0   18          - -1153.2693      -     -    4s
     0     0 -1153.2627    0   18          - -1153.2627      -     -    4s
     0     0 -1153.2596    0   18          - -1153.2596      -     -    4s
     0     0 -1153.2560    0   18          - -1153.2560      -     -    4s
     0     0 -1153.2525    0   18          - -1153.2525      -     -    4s
     0     0 -1153.2463    0   17          - -1153.2463      -     -    4s
     0     0 -1153.2407    0   18          - -1153.2407      -     -    4s
     0     0 -1153.2392    0   19          - -1153.2392      -     -    4s
     0     0 -1153.2192    0   19          - -1153.2192      -     -    4s
     0     0 -1153.2089    0   19          - -1153.2089      -     -    4s
     0     0 -1153.2062    0   18          - -1153.2062      -     -    4s
     0     0 -1153.1671    0   16          - -1153.1671      -     -    4s
     0     0 -1153.1294    0   18          - -1153.1294      -     -    4s
     0     0 -1153.1169    0   19          - -1153.1169      -     -    4s
     0     0 -1153.1012    0   18          - -1153.1012      -     -    4s
     0     0 -1153.0953    0   19          - -1153.0953      -     -    4s
     0     0 -1153.0928    0   18          - -1153.0928      -     -    4s
     0     0 -1153.0495    0   19          - -1153.0495      -     -    5s
     0     0 -1153.0460    0   18          - -1153.0460      -     -    5s
     0     0 -1153.0430    0   19          - -1153.0430      -     -    5s
     0     0 -1153.0421    0   17          - -1153.0421      -     -    5s
     0     0 -1153.0378    0   18          - -1153.0378      -     -    5s
     0     0 -1153.0352    0   19          - -1153.0352      -     -    5s
     0     0 -1153.0189    0   17          - -1153.0189      -     -    5s
     0     0 -1153.0158    0   18          - -1153.0158      -     -    5s
     0     0 -1153.0150    0   18          - -1153.0150      -     -    5s
     0     0 -1152.9812    0   19          - -1152.9812      -     -    5s
     0     0 -1152.9743    0   18          - -1152.9743      -     -    5s
     0     0 -1152.9721    0   19          - -1152.9721      -     -    5s
     0     0 -1152.9618    0   18          - -1152.9618      -     -    5s
     0     0 -1152.9618    0   18          - -1152.9618      -     -    5s
     0     2 -1152.9618    0   18          - -1152.9618      -     -    5s
*   45    40              20    -575.8749863 -1152.9537   100%  56.5   13s
*   46    37              20    -672.6249844 -1152.9537  71.4%  59.8   14s
*   48    37              20    -814.9749808 -1152.9537  41.5%  61.5   16s
*   53    37              20    -827.2999804 -1152.9129  39.4%  64.9   20s
*   54    37              20    -898.9399783 -1152.9129  28.3%  67.4   21s
    96    69     cutoff   20      -898.93998 -1152.9129  28.3%  65.1   31s
   111    65 -1127.1800   19    2 -898.93998 -1152.9129  28.3%  63.8   37s
   122    62     cutoff   20      -898.93998 -1152.9129  28.3%  66.8   41s
   128    64     cutoff   20      -898.93998 -1152.9129  28.3%  69.0   45s
   148    77 -1119.0503   20    - -898.93998 -1152.9129  28.3%  63.8   50s
*  155    80              20    -921.0299775 -1152.9129  25.2%  65.3   54s
*  158    80              20    -938.2399766 -1152.9129  22.9%  65.6   55s
*  169    82              20    -950.8499762 -1152.9129  21.3%  65.0   61s
   186    83 -1137.1618   19    - -950.84998 -1152.9129  21.3%  66.4   68s
   190    83     cutoff   20      -950.84998 -1152.9129  21.3%  68.3   71s
   201    84 -1097.0982   19    2 -950.84998 -1152.9129  21.3%  68.5   75s
*  209    84              20    -951.8399757 -1152.9129  21.1%  70.3   79s
   213    84 -1072.3330   19    - -951.83998 -1152.9129  21.1%  71.1   81s
   228    95     cutoff   20      -951.83998 -1152.9129  21.1%  70.2   87s
*  237    91              20    -952.5749752 -1152.9129  21.0%  70.9   90s
   250    99     cutoff   20      -952.57498 -1152.9129  21.0%  73.2   99s
   255   102 -1007.5704   19    2 -952.57498 -1152.9129  21.0%  72.9  101s
   261   102 -973.30498   20    - -952.57498 -1152.9129  21.0%  73.1  106s
*  262   103              20    -959.5449755 -1152.9129  20.2%  73.5  107s
   273   104     cutoff   20      -959.54498 -1152.9129  20.2%  73.8  110s
   291   101     cutoff   20      -959.54498 -1152.9129  20.2%  73.1  119s
   295   102     cutoff   20      -959.54498 -1152.9129  20.2%  73.1  120s
   304   102     cutoff   20      -959.54498 -1152.9129  20.2%  73.2  126s
   316   104 -1117.7171   17    2 -959.54498 -1152.9129  20.2%  72.9  131s
   325   107     cutoff   20      -959.54498 -1152.9129  20.2%  72.6  136s
   336   110 -1141.9245   15    4 -959.54498 -1152.9129  20.2%  72.0  142s
   347   114 -1140.6942   16    4 -959.54498 -1152.9129  20.2%  70.8  146s
   351   117     cutoff   20      -959.54498 -1152.9129  20.2%  71.0  150s
   368   118     cutoff   20      -959.54498 -1152.9129  20.2%  69.7  157s
   378   120     cutoff   20      -959.54498 -1152.9129  20.2%  69.8  162s
   388   123 -1148.9254    5   10 -959.54498 -1152.9129  20.2%  69.7  165s
   395   123 -1141.0440    6    - -959.54498 -1152.9129  20.2%  69.4  170s
   417   129     cutoff   20      -959.54498 -1152.9129  20.2%  68.4  176s
   429   130     cutoff   20      -959.54498 -1152.9129  20.2%  68.0  183s
   436   133     cutoff   20      -959.54498 -1152.9129  20.2%  67.7  187s
   448   130 -1093.3435   20    - -959.54498 -1152.9129  20.2%  67.3  191s
   458   132     cutoff   20      -959.54498 -1152.9129  20.2%  67.7  197s
   468   130     cutoff   20      -959.54498 -1152.9129  20.2%  68.2  201s
   484   141     cutoff   20      -959.54498 -1149.2432  19.8%  67.5  206s
   500   143     cutoff   20      -959.54498 -1149.1184  19.8%  66.9  212s
   519   146 -1054.6886   16    5 -959.54498 -1149.1184  19.8%  66.8  216s
   535   154     cutoff   20      -959.54498 -1149.1184  19.8%  68.2  221s
   561   153 -1110.7936   19    - -959.54498 -1149.0220  19.7%  68.0  228s
   565   160 -1139.1391   13    2 -959.54498 -1148.9354  19.7%  67.9  232s
   584   160     cutoff   20      -959.54498 -1148.9176  19.7%  67.2  238s
   598   160     cutoff   20      -959.54498 -1148.7548  19.7%  66.9  244s
   604   162 -1084.7744   19    2 -959.54498 -1148.6471  19.7%  66.9  247s
   614   165 -1136.0493   13    2 -959.54498 -1148.6374  19.7%  67.5  251s
   633   165 -1114.9267   18    2 -959.54498 -1148.5230  19.7%  66.6  258s
   642   170 -1121.4837   19    2 -959.54498 -1148.4793  19.7%  66.5  264s
   652   169     cutoff   20      -959.54498 -1148.3586  19.7%  66.7  269s
   658   170     cutoff   20      -959.54498 -1148.3586  19.7%  66.6  270s
   668   192 -1139.6312    9    2 -959.54498 -1148.3178  19.7%  67.1  275s
   707   189     cutoff   20      -959.54498 -1148.2293  19.7%  65.1  285s
   720   190     cutoff   20      -959.54498 -1148.1586  19.7%  65.0  290s
   739   199 -1138.6228   18    2 -959.54498 -1148.0754  19.6%  64.5  296s
   746   203     cutoff   20      -959.54498 -1147.9511  19.6%  64.4  301s
   759   199     cutoff   19      -959.54498 -1147.9511  19.6%  64.5  305s
   776   199     cutoff   20      -959.54498 -1147.7772  19.6%  64.7  312s
   785   205 -1145.9116   16    4 -959.54498 -1147.7683  19.6%  64.7  317s
   794   206 -1130.7024   19    - -959.54498 -1147.7683  19.6%  64.7  321s
   811   216     cutoff   20      -959.54498 -1147.6947  19.6%  64.3  331s
   823   216     cutoff   20      -959.54498 -1147.5089  19.6%  64.0  335s
   838   235 -1136.9580    5    2 -959.54498 -1147.5089  19.6%  63.9  343s
   863   233 -1105.0082   17    - -959.54498 -1147.4323  19.6%  62.6  350s
   876   234     cutoff   20      -959.54498 -1147.4323  19.6%  62.7  357s
   887   237     cutoff   20      -959.54498 -1147.3775  19.6%  62.7  363s
   894   243 -1067.5162   19    2 -959.54498 -1147.2955  19.6%  62.7  365s
   934   254     cutoff   20      -959.54498 -1147.1034  19.5%  62.4  380s
   953   254     cutoff   20      -959.54498 -1146.8250  19.5%  62.3  386s
   961   265 -1137.2263   11    2 -959.54498 -1146.7903  19.5%  62.6  390s
   976   271 -1137.6697   13    2 -959.54498 -1146.7903  19.5%  62.1  397s
  1000   271 -1080.1237   20    - -959.54498 -1146.6103  19.5%  61.9  404s
  1005   270     cutoff   20      -959.54498 -1146.5143  19.5%  62.0  409s
  1014   272     cutoff   20      -959.54498 -1146.4638  19.5%  62.1  411s
  1027   287 -1140.1919    5    2 -959.54498 -1146.3377  19.5%  62.2  416s
  1051   292     cutoff   20      -959.54498 -1146.3377  19.5%  61.6  422s
  1060   295 -1143.2016   12    4 -959.54498 -1146.3377  19.5%  61.4  425s
  1090   298     cutoff   19      -959.54498 -1146.1849  19.5%  61.9  432s
  1108   300 -1105.4568   19    2 -959.54498 -1146.0756  19.4%  61.8  446s
  1117   304 -972.74183   19    2 -959.54498 -1146.0490  19.4%  61.7  451s
  1129   305     cutoff   20      -959.54498 -1145.8839  19.4%  61.5  458s
  1141   309     cutoff   20      -959.54498 -1145.6589  19.4%  61.8  462s
  1151   311 -1118.1400   11    - -959.54498 -1145.5390  19.4%  62.0  465s
  1174   313     cutoff   20      -959.54498 -1145.4236  19.4%  61.8  475s
  1184   317     cutoff   20      -959.54498 -1145.3950  19.4%  61.7  480s
  1195   319     cutoff   20      -959.54498 -1145.2523  19.4%  61.7  485s
  1220   336 -1142.1038   11    4 -959.54498 -1144.9794  19.3%  62.2  491s
  1264   349 -1134.6975   16    2 -959.54498 -1144.9794  19.3%  61.4  505s
  1286   354 -999.02435   18    3 -959.54498 -1144.9794  19.3%  61.7  514s
  1316   367 -1116.6113   16    2 -959.54498 -1144.9794  19.3%  61.4  529s
  1343   370 -1116.3815   19    2 -959.54498 -1144.9794  19.3%  61.2  533s
  1354   355 -1107.1947   18    2 -959.54498 -1144.9794  19.3%  61.3  541s
  1399   380     cutoff   20      -959.54498 -1144.9794  19.3%  61.9  570s
  1437   365     cutoff   20      -959.54498 -1144.0181  19.2%  62.0  578s
  1476   373     cutoff   20      -959.54498 -1143.7724  19.2%  62.0  598s
  1492   391     cutoff   20      -959.54498 -1143.3420  19.2%  62.3  606s
  1517   386     cutoff   19      -959.54498 -1143.2837  19.1%  62.1  612s
  1531   393 -1122.0608   17    2 -959.54498 -1143.2140  19.1%  62.1  623s
  1540   398 -1121.3194   11    2 -959.54498 -1143.1319  19.1%  62.0  629s
  1555   395     cutoff   20      -959.54498 -1143.0532  19.1%  61.9  637s
  1565   399     cutoff   20      -959.54498 -1142.9463  19.1%  61.9  642s
  1575   395     cutoff   20      -959.54498 -1142.8766  19.1%  61.9  649s
  1591   403 -1123.6479   12    2 -959.54498 -1142.7552  19.1%  62.0  659s
  1604   407 -1130.3362   15    2 -959.54498 -1142.7552  19.1%  61.8  664s
  1614   407     cutoff   20      -959.54498 -1142.7260  19.1%  61.8  672s
* 1639   410              20    -969.6699753 -1142.4389  17.8%  61.8  688s
  1653   413     cutoff   20      -969.66998 -1142.4300  17.8%  61.8  691s
  1663   413     cutoff   20      -969.66998 -1142.3214  17.8%  61.9  697s
  1675   418     cutoff   20      -969.66998 -1142.1075  17.8%  61.8  703s
  1684   425 -1110.4190   19    2 -969.66998 -1142.0546  17.8%  61.7  709s
  1718   439     cutoff   20      -969.66998 -1141.8048  17.8%  61.7  721s
  1749   436     cutoff   20      -969.66998 -1141.7961  17.8%  61.4  730s
  1762   443     cutoff   20      -969.66998 -1141.6219  17.7%  61.3  739s
  1768   460     cutoff   20      -969.66998 -1141.6065  17.7%  61.3  744s
  1798   452     cutoff   20      -969.66998 -1141.5252  17.7%  61.0  751s
  1807   456 -1113.1753   20    - -969.66998 -1141.3156  17.7%  61.1  757s
  1815   456     cutoff   20      -969.66998 -1141.0415  17.7%  61.1  767s
  1820   460     cutoff   20      -969.66998 -1141.0249  17.7%  61.2  772s
  1832   471 -1120.2497   12    2 -969.66998 -1141.0233  17.7%  61.1  780s
  1868   487 -1117.3359   12    2 -969.66998 -1141.0218  17.7%  60.6  798s
  1883   493 -1116.3494    9    2 -969.66998 -1141.0218  17.7%  60.4  805s
  1902   500     cutoff   20      -969.66998 -1141.0203  17.7%  60.1  817s
  1925   504 -1082.7987   19    - -969.66998 -1141.0110  17.7%  59.8  823s
  1944   515     cutoff   20      -969.66998 -1140.9272  17.7%  59.7  834s
  1968   524 -1079.5231   20    - -969.66998 -1140.8573  17.7%  59.6  844s
  1997   521     cutoff   20      -969.66998 -1140.7034  17.6%  59.5  856s
  2028   531     cutoff   20      -969.66998 -1140.6683  17.6%  59.3  878s
  2050   537     cutoff   20      -969.66998 -1140.6083  17.6%  59.2  885s
  2062   534     cutoff   20      -969.66998 -1140.5241  17.6%  59.3  892s
  2082   539     cutoff   20      -969.66998 -1140.4209  17.6%  59.3  898s
  2095   547     cutoff   20      -969.66998 -1140.3947  17.6%  59.3  906s
  2131   553     cutoff   20      -969.66998 -1140.3457  17.6%  59.1  921s
  2149   557 -1110.7711   20    - -969.66998 -1140.3046  17.6%  59.1  927s
  2165   558     cutoff   20      -969.66998 -1140.2986  17.6%  59.1  938s
  2175   561     cutoff   20      -969.66998 -1140.1616  17.6%  59.2  942s
  2187   554     cutoff   20      -969.66998 -1140.1566  17.6%  59.2  953s
  2196   560     cutoff   20      -969.66998 -1140.0297  17.6%  59.3  960s
  2211   571     cutoff   20      -969.66998 -1140.0285  17.6%  59.4  971s
  2227   577 -1119.9248   10    2 -969.66998 -1139.9680  17.6%  59.3  979s
  2242   593     cutoff   20      -969.66998 -1139.9529  17.6%  59.2  988s
  2302   594     cutoff   20      -969.66998 -1139.9215  17.6%  59.0 1007s
  2331   596     cutoff   20      -969.66998 -1139.9172  17.6%  59.0 1027s
  2339   603 -1139.9172   19    2 -969.66998 -1139.9172  17.6%  59.0 1036s
  2360   597 -1110.1710   16    2 -969.66998 -1139.6814  17.5%  58.8 1052s
  2375   606     cutoff   20      -969.66998 -1139.3314  17.5%  58.8 1063s
  2395   625     cutoff   20      -969.66998 -1139.3204  17.5%  58.8 1080s
  2441   616     cutoff   20      -969.66998 -1139.2438  17.5%  58.5 1095s
  2471   633     cutoff   20      -969.66998 -1138.9710  17.5%  58.4 1123s
  2514   658     cutoff   20      -969.66998 -1138.8237  17.4%  58.0 1150s
  2553   682 -1117.6296    9    2 -969.66998 -1138.8198  17.4%  57.6 1179s
  2574   688 -1089.9465    6    2 -969.66998 -1138.8189  17.4%  57.3 1187s
  2593   692     cutoff   20      -969.66998 -1138.8182  17.4%  57.1 1201s
  2618   702 -1078.7625   13    2 -969.66998 -1138.7007  17.4%  56.8 1213s
  2640   714     cutoff   20      -969.66998 -1138.6971  17.4%  56.6 1230s
  2659   721 -1079.6465   16    2 -969.66998 -1138.6968  17.4%  56.5 1239s
  2683   730     cutoff   20      -969.66998 -1138.6860  17.4%  56.4 1247s
  2733   730     cutoff   20      -969.66998 -1138.5847  17.4%  56.1 1270s
  2773   748     cutoff   20      -969.66998 -1138.4062  17.4%  55.9 1302s
  2826   774     cutoff   20      -969.66998 -1138.2924  17.4%  56.2 1327s
  2853   782     cutoff   20      -969.66998 -1138.1898  17.4%  56.0 1337s
  2880   796     cutoff   20      -969.66998 -1138.1793  17.4%  56.0 1353s
  2914   803 -1120.2568   14    2 -969.66998 -1138.1363  17.4%  55.6 1362s
  2931   803     cutoff   20      -969.66998 -1138.1352  17.4%  55.6 1381s
  2952   814     cutoff   20      -969.66998 -1138.0876  17.4%  55.5 1395s
  2979   814     cutoff   20      -969.66998 -1137.9895  17.4%  55.4 1415s
  3015   832 -1119.6020   11    3 -969.66998 -1137.7430  17.3%  55.5 1442s
  3035   841     cutoff   20      -969.66998 -1137.7425  17.3%  55.4 1453s
  3070   855     cutoff   20      -969.66998 -1137.6552  17.3%  55.3 1472s
  3125   878     cutoff   20      -969.66998 -1137.5185  17.3%  55.1 1498s
  3165   883     cutoff   20      -969.66998 -1137.3168  17.3%  55.0 1518s
  3224   888     cutoff   20      -969.66998 -1137.2810  17.3%  55.0 1548s
  3282   908     cutoff   20      -969.66998 -1137.1037  17.3%  55.2 1585s
  3335   925     cutoff   20      -969.66998 -1136.9952  17.3%  55.1 1614s
  3372   939     cutoff   20      -969.66998 -1136.7947  17.2%  54.9 1632s
  3402   959     cutoff   20      -969.66998 -1136.7924  17.2%  54.8 1655s
  3461   964     cutoff   20      -969.66998 -1136.7530  17.2%  54.6 1682s
  3516   971     cutoff   20      -969.66998 -1136.5043  17.2%  54.5 1723s
  3540   984     cutoff   20      -969.66998 -1136.3561  17.2%  54.4 1739s
  3571  1003     cutoff   20      -969.66998 -1136.1554  17.2%  54.4 1766s
  3597  1008     cutoff   20      -969.66998 -1136.1551  17.2%  54.4 1772s
  3630  1008 -1072.3984   20    - -969.66998 -1136.0964  17.2%  54.3 1792s
  3694  1024     cutoff   20      -969.66998 -1135.6109  17.1%  54.3 1827s
  3734  1034     cutoff   20      -969.66998 -1135.6102  17.1%  54.4 1839s
  3767  1043 -1070.5553   20    - -969.66998 -1135.0807  17.1%  54.4 1863s
  3791  1050     cutoff   20      -969.66998 -1134.8543  17.0%  54.4 1870s
  3815  1060     cutoff   20      -969.66998 -1134.8397  17.0%  54.4 1892s
  3884  1071     cutoff   20      -969.66998 -1134.3057  17.0%  54.1 1932s
  3935  1095 -1111.9901   11    2 -969.66998 -1134.2531  17.0%  54.1 1973s
  4011  1119     cutoff   20      -969.66998 -1133.8525  16.9%  53.9 2018s
  4046  1132     cutoff   20      -969.66998 -1133.7304  16.9%  53.8 2035s
  4086  1136     cutoff   20      -969.66998 -1133.6737  16.9%  53.8 2060s
  4149  1158     cutoff   20      -969.66998 -1132.9203  16.8%  53.9 2100s
  4175  1168     cutoff   20      -969.66998 -1131.3850  16.7%  53.8 2112s
  4205  1175 -1121.4995   14    2 -969.66998 -1131.2972  16.7%  53.8 2140s
  4242  1186     cutoff   20      -969.66998 -1130.9374  16.6%  53.8 2154s
  4268  1189 -1073.3119   19    2 -969.66998 -1130.7024  16.6%  53.8 2178s
  4301  1205 -1121.8853    6    2 -969.66998 -1130.4637  16.6%  54.0 2198s
  4336  1205     cutoff   20      -969.66998 -1130.2656  16.6%  53.9 2227s
  4381  1215     cutoff   20      -969.66998 -1129.2555  16.5%  54.0 2240s
  4401  1219     cutoff   20      -969.66998 -1129.1951  16.5%  54.1 2264s
  4438  1228     cutoff   20      -969.66998 -1128.8842  16.4%  54.1 2276s
  4468  1232     cutoff   20      -969.66998 -1128.8489  16.4%  54.1 2305s
  4530  1238 -1069.4806   20    - -969.66998 -1127.6140  16.3%  54.1 2351s
  4582  1256     cutoff   20      -969.66998 -1126.3304  16.2%  54.2 2399s
  4641  1263     cutoff   20      -969.66998 -1124.8206  16.0%  54.2 2454s
  4681  1281     cutoff   20      -969.66998 -1122.9205  15.8%  54.1 2477s
  4709  1295     cutoff   20      -969.66998 -1122.7677  15.8%  54.1 2513s
  4747  1311     cutoff   20      -969.66998 -1122.6226  15.8%  54.0 2534s
  4788  1320     cutoff   20      -969.66998 -1122.5617  15.8%  53.8 2569s
  4812  1331     cutoff   20      -969.66998 -1122.1143  15.7%  53.8 2584s
  4844  1330     cutoff   20      -969.66998 -1122.1139  15.7%  53.8 2615s
  4907  1346     cutoff   20      -969.66998 -1121.8329  15.7%  53.7 2671s
  4973  1372     cutoff   20      -969.66998 -1121.7933  15.7%  53.7 2729s
  5048  1398 -1093.3031   18    2 -969.66998 -1121.5191  15.7%  53.5 2782s
  5101  1416     cutoff   20      -969.66998 -1121.2240  15.6%  53.4 2826s
  5134  1429     cutoff   20      -969.66998 -1121.0954  15.6%  53.4 2843s
  5166  1432     cutoff   20      -969.66998 -1121.0568  15.6%  53.3 2877s
  5188  1445     cutoff   20      -969.66998 -1120.9820  15.6%  53.3 2894s
  5227  1459     cutoff   20      -969.66998 -1120.8045  15.6%  53.1 2933s
  5269  1474     cutoff   20      -969.66998 -1120.7871  15.6%  53.0 2953s
  5316  1485     cutoff   20      -969.66998 -1120.4760  15.6%  52.9 2995s
  5352  1500     cutoff   20      -969.66998 -1120.3352  15.5%  52.9 3015s
  5381  1516     cutoff   20      -969.66998 -1120.2989  15.5%  52.8 3051s
  5455  1546     cutoff   20      -969.66998 -1120.1267  15.5%  52.6 3103s
  5491  1558     cutoff   20      -969.66998 -1120.1123  15.5%  52.5 3116s
  5518  1569     cutoff   20      -969.66998 -1120.0474  15.5%  52.5 3148s
  5557  1582     cutoff   20      -969.66998 -1120.0472  15.5%  52.4 3165s
  5588  1590     cutoff   20      -969.66998 -1119.9397  15.5%  52.3 3204s
  5615  1604     cutoff   20      -969.66998 -1119.8962  15.5%  52.3 3223s
  5659  1602     cutoff   20      -969.66998 -1119.8334  15.5%  52.2 3264s
  5690  1616 -1099.4843   14    3 -969.66998 -1119.6504  15.5%  52.2 3282s
  5727  1647     cutoff   20      -969.66998 -1119.6393  15.5%  52.1 3329s
  5765  1654     cutoff   20      -969.66998 -1119.6203  15.5%  52.0 3339s
  5804  1659 -1088.9980   20    - -969.66998 -1119.5664  15.5%  51.9 3381s
  5835  1677     cutoff   20      -969.66998 -1119.4288  15.4%  51.8 3404s
  5865  1700 -1089.6913   15    2 -969.66998 -1119.4137  15.4%  51.7 3442s
  5935  1705 -1089.6583   15    3 -969.66998 -1119.3404  15.4%  51.5 3496s
  5966  1722     cutoff   20      -969.66998 -1119.3133  15.4%  51.5 3519s
  6012  1758     cutoff   20      -969.66998 -1119.1613  15.4%  51.4 3564s
  6098  1774     cutoff   20      -969.66998 -1119.1053  15.4%  51.2 3617s
  6131  1789     cutoff   20      -969.66998 -1118.9574  15.4%  51.1 3637s
  6164  1810     cutoff   20      -969.66998 -1118.9004  15.4%  51.0 3680s
  6249  1829 -1097.5266    7    - -969.66998 -1118.8345  15.4%  50.7 3749s
  6312  1860 -1095.5953    9    2 -969.66998 -1118.6939  15.4%  50.5 3813s
  6387  1886 -1047.6861   19    2 -969.66998 -1118.5690  15.4%  50.4 3873s
  6424  1896     cutoff   20      -969.66998 -1118.5433  15.4%  50.3 3887s
  6456  1905     cutoff   20      -969.66998 -1118.5209  15.4%  50.4 3927s
  6496  1921     cutoff   20      -969.66998 -1118.4349  15.3%  50.2 3948s
  6531  1933     cutoff   20      -969.66998 -1118.4257  15.3%  50.2 3990s
  6566  1945 -1087.2692   14    2 -969.66998 -1118.3489  15.3%  50.1 4005s
  6595  1953 -970.01498   20    - -969.66998 -1118.3418  15.3%  50.0 4053s
  6673  1983     cutoff   20      -969.66998 -1118.2188  15.3%  50.0 4121s
  6755  2000     cutoff   20      -969.66998 -1118.0177  15.3%  49.9 4190s
  6794  2014     cutoff   20      -969.66998 -1118.0043  15.3%  49.8 4211s
  6835  2038     cutoff   20      -969.66998 -1117.8645  15.3%  49.8 4265s
  6880  2057 -1095.5243   13    2 -969.66998 -1117.6656  15.3%  49.7 4291s
  6931  2077     cutoff   20      -969.66998 -1117.6515  15.3%  49.7 4339s
  7022  2100     cutoff   20      -969.66998 -1117.5496  15.3%  49.4 4410s
  7098  2128     cutoff   20      -969.66998 -1117.3951  15.2%  49.3 4484s
  7130  2141     cutoff   20      -969.66998 -1117.2687  15.2%  49.3 4502s
  7184  2159     cutoff   20      -969.66998 -1117.2526  15.2%  49.2 4556s
  7284  2195 -1094.0065   13    2 -969.66998 -1117.1614  15.2%  49.0 4628s
  7323  2211     cutoff   20      -969.66998 -1117.0842  15.2%  48.9 4650s
  7358  2234     cutoff   20      -969.66998 -1117.0338  15.2%  48.8 4699s
  7452  2259     cutoff   20      -969.66998 -1116.9395  15.2%  48.6 4775s
  7486  2271     cutoff   20      -969.66998 -1116.9391  15.2%  48.6 4791s
  7518  2284     cutoff   20      -969.66998 -1116.8695  15.2%  48.6 4839s
  7556  2299     cutoff   20      -969.66998 -1116.8085  15.2%  48.5 4860s
  7593  2299     cutoff   20      -969.66998 -1116.7560  15.2%  48.5 4905s
  7679  2347 -1094.5486   17    2 -969.66998 -1116.6468  15.2%  48.5 4991s
  7786  2378 -1089.1282   11    2 -969.66998 -1116.6127  15.2%  48.2 5073s
  7817  2393     cutoff   20      -969.66998 -1116.5168  15.1%  48.2 5092s
  7865  2397     cutoff   20      -969.66998 -1116.4751  15.1%  48.2 5148s
  7913  2416     cutoff   20      -969.66998 -1116.3823  15.1%  48.1 5174s
  7948  2439 -1095.5429   13    2 -969.66998 -1116.3467  15.1%  48.1 5227s
  7998  2459     cutoff   20      -969.66998 -1116.2914  15.1%  48.0 5254s
  8051  2461 -1069.1142   19    2 -969.66998 -1116.2011  15.1%  47.9 5308s
  8125  2511 -1093.4367    6    2 -969.66998 -1116.0854  15.1%  47.8 5385s
  8173  2530 -1116.0854   19    2 -969.66998 -1116.0854  15.1%  47.7 5411s
  8221  2528     cutoff   20      -969.66998 -1115.9682  15.1%  47.6 5464s
  8271  2550     cutoff   20      -969.66998 -1115.9154  15.1%  47.6 5494s
  8304  2567     cutoff   20      -969.66998 -1115.8485  15.1%  47.5 5550s
  8394  2605     cutoff   20      -969.66998 -1115.7830  15.1%  47.5 5633s
  8448  2623     cutoff   20      -969.66998 -1115.6739  15.1%  47.3 5658s
  8502  2639     cutoff   20      -969.66998 -1115.6233  15.1%  47.4 5715s
  8554  2656     cutoff   20      -969.66998 -1115.5845  15.0%  47.4 5739s
  8604  2666     cutoff   20      -969.66998 -1115.4863  15.0%  47.3 5799s
  8644  2685     cutoff   20      -969.66998 -1115.4482  15.0%  47.2 5826s
  8693  2693     cutoff   20      -969.66998 -1115.2977  15.0%  47.2 5884s
  8766  2734     cutoff   20      -969.66998 -1115.2471  15.0%  47.1 5959s
  8849  2755     cutoff   20      -969.66998 -1115.1812  15.0%  46.9 6034s
  8887  2769     cutoff   20      -969.66998 -1115.1264  15.0%  46.8 6054s
  8939  2796     cutoff   20      -969.66998 -1115.1188  15.0%  46.8 6120s
  8996  2815     cutoff   20      -969.66998 -1115.1033  15.0%  46.7 6147s
  9027  2814     cutoff   20      -969.66998 -1114.9904  15.0%  46.7 6195s
  9092  2849     cutoff   20      -969.66998 -1114.8821  15.0%  46.6 6273s
  9133  2864     cutoff   20      -969.66998 -1114.8816  15.0%  46.5 6295s
  9172  2880     cutoff   20      -969.66998 -1114.8197  15.0%  46.5 6342s
  9249  2893     cutoff   20      -969.66998 -1114.7687  15.0%  46.4 6416s
  9317  2912 -1083.9187   19    2 -969.66998 -1114.6696  15.0%  46.3 6491s
  9392  2954     cutoff   20      -969.66998 -1114.5189  14.9%  46.3 6570s
  9476  2961     cutoff   20      -969.66998 -1114.3922  14.9%  46.2 6637s
  9543  3008     cutoff   20      -969.66998 -1114.2502  14.9%  46.2 6722s
  9602  3023     cutoff   20      -969.66998 -1114.2431  14.9%  46.1 6743s
  9648  3060     cutoff   20      -969.66998 -1114.1687  14.9%  46.1 6801s
  9743  3086 -1084.3635   13   18 -969.66998 -1114.1476  14.9%  45.9 6987s

Explored 9744 nodes (455406 simplex iterations) in 7180.28 seconds
Thread count was 4 (of 4 available processors)

Solution count 10: -969.67 -959.545 -952.575 ... -814.975

Time limit reached
Best objective -9.696699753314e+02, best bound -1.114147597608e+03, gap 14.8997%

User-callback calls 73315, time in user-callback 4361.70 sec
